0 46
0 149
0 510
0 511
0 731
0 732
0 768
0 778
0 783
0 993
1 90
1 220
1 305
1 306
1 579
1 581
1 681
1 682
2 61
2 166
2 275
2 319
2 328
2 329
2 428
2 598
3 19
3 21
3 99
3 100
3 333
3 403
3 406
3 595
4 82
4 83
4 104
4 130
4 273
4 489
4 871
4 872
5 25
5 39
5 40
5 44
5 71
5 349
5 481
5 882
6 8
6 12
6 18
6 318
6 599
6 683
6 684
7 48
7 133
7 134
7 156
7 190
7 217
7 573
8 18
8 90
8 306
8 307
8 400
8 823
9 38
9 93
9 97
9 318
9 824
9 838
9 839
10 39
10 44
10 64
10 67
10 180
10 265
10 869
11 48
11 85
11 91
11 136
11 298
11 954
12 95
12 199
12 466
12 593
12 594
13 78
13 116
13 214
13 252
13 568
13 569
14 125
14 150
14 151
14 269
14 296
14 297
15 35
15 87
15 250
15 302
15 655
15 790
16 53
16 161
16 456
16 799
16 814
16 945
17 33
17 95
17 164
17 316
17 317
17 657
18 73
18 263
18 318
18 918
19 58
19 59
19 117
19 389
19 685
20 332
20 404
20 686
20 687
20 688
20 847
21 60
21 96
21 479
21 704
21 705
22 34
22 112
22 244
22 469
22 858
22 859
23 24
23 228
23 264
23 271
23 486
23 864
24 28
24 177
24 272
24 727
24 975
25 113
25 114
25 348
25 375
25 905
26 120
26 151
26 392
26 395
26 477
27 357
27 455
27 549
27 550
27 886
28 61
28 204
28 430
28 929
29 172
29 205
29 519
29 520
29 631
30 50
30 216
30 359
30 564
30 648
31 70
31 71
31 182
31 184
31 239
32 87
32 242
32 566
32 655
32 963
33 95
33 111
33 221
33 658
34 63
34 341
34 659
34 897
35 240
35 556
35 678
35 679
36 87
36 88
36 250
36 680
36 913
37 90
37 123
37 220
37 262
37 703
38 97
38 224
38 596
38 704
39 81
39 82
39 84
40 81
40 119
40 259
40 706
41 124
41 197
41 666
41 667
41 713
42 56
42 134
42 156
42 584
42 722
43 102
43 228
43 271
43 484
43 727
44 178
44 273
44 728
45 246
45 282
45 445
45 663
45 990
46 298
46 514
46 742
46 779
47 48
47 75
47 132
47 500
47 797
48 75
48 798
49 161
49 299
49 563
49 799
49 800
50 51
50 54
50 242
50 303
51 72
51 656
51 657
51 803
52 128
52 156
52 307
52 407
52 720
53 351
53 813
53 814
53 995
54 55
54 162
54 312
54 360
55 187
55 312
55 313
55 314
56 498
56 723
56 827
56 828
57 168
57 278
57 512
58 199
58 467
58 592
58 837
59 80
59 117
59 684
59 838
60 100
60 101
60 228
60 848
61 171
61 227
61 850
62 135
62 178
62 418
62 736
62 866
63 112
63 179
63 464
63 867
64 113
64 180
64 472
64 868
65 66
65 256
65 340
65 343
65 480
66 257
66 344
66 481
66 917
67 82
67 83
67 201
67 870
68 104
68 191
68 345
68 499
68 872
69 110
69 182
69 183
69 347
69 350
70 71
70 114
70 184
70 189
71 119
71 694
72 370
72 371
72 372
73 93
73 307
73 407
74 136
74 425
74 426
74 926
75 419
75 427
76 246
76 442
76 443
76 444
77 186
77 198
77 234
77 369
78 89
78 243
78 305
79 154
79 394
79 477
79 909
80 117
80 403
80 478
81 200
81 349
82 485
83 130
83 488
84 489
84 490
84 920
85 427
85 511
85 928
86 249
86 392
86 556
86 557
87 88
88 89
88 561
89 567
89 568
90 571
91 218
91 419
91 420
92 187
92 387
92 575
92 576
93 165
93 582
94 159
94 206
94 521
94 585
95 593
96 223
96 483
96 952
97 225
97 408
98 223
98 226
98 270
98 601
99 100
99 253
99 480
100 101
101 176
101 606
102 177
102 276
102 334
103 180
103 181
103 342
103 471
104 202
104 258
105 173
105 232
105 617
105 629
106 640
106 957
106 958
106 980
107 108
107 458
107 544
107 643
108 238
108 358
108 982
109 161
109 355
109 456
109 832
110 234
110 635
110 649
111 163
111 327
111 658
112 179
112 244
113 374
113 659
114 618
114 976
115 124
115 670
115 759
115 942
116 251
116 562
116 912
117 222
118 253
118 686
118 687
118 689
119 259
119 619
120 699
120 700
120 908
121 269
121 393
121 700
121 701
122 123
122 126
122 215
122 702
123 401
123 703
124 197
124 714
125 126
125 269
125 412
126 190
126 718
127 128
127 217
127 415
127 719
128 217
128 572
129 270
129 597
129 598
129 724
130 272
130 919
131 202
131 349
131 411
131 728
132 133
132 421
132 732
133 696
133 706
134 166
134 308
135 178
135 192
135 735
136 422
136 742
137 172
137 277
137 517
137 518
138 625
138 746
138 747
138 978
139 707
139 708
139 750
139 988
140 143
140 750
140 751
140 934
141 142
141 195
141 711
141 752
142 194
142 267
142 753
143 281
143 285
143 754
144 281
144 505
144 729
144 751
145 196
145 282
145 283
145 712
146 147
146 291
146 716
146 765
147 287
147 495
147 496
148 293
148 673
148 674
148 772
149 295
149 496
149 497
150 717
150 777
150 778
151 476
151 558
152 153
152 213
152 789
152 894
153 241
153 300
153 895
154 215
154 791
154 792
155 701
155 702
155 793
155 794
156 804
157 308
157 502
157 573
157 574
158 516
158 521
158 805
158 955
159 309
159 586
159 806
160 622
160 781
160 810
160 811
161 815
162 303
162 802
162 819
163 315
163 316
163 373
164 317
164 581
164 820
165 408
165 824
165 825
166 828
166 829
167 270
167 328
167 723
167 839
168 841
168 985
168 998
169 834
169 835
169 843
169 844
170 175
170 244
170 326
170 845
171 276
171 733
171 849
172 743
172 854
173 209
173 855
173 856
174 179
174 324
174 336
174 887
175 336
175 337
175 844
176 340
176 482
176 864
177 499
177 865
178 204
179 239
180 181
181 257
181 343
182 878
182 879
183 364
183 633
183 881
184 245
184 350
185 362
185 367
185 368
186 889
186 892
187 372
188 387
189 391
189 906
190 412
191 418
191 923
192 204
192 431
193 267
193 439
193 936
194 439
194 440
195 446
195 661
196 282
196 446
197 941
198 368
198 460
199 388
200 632
200 922
201 265
201 484
202 921
203 274
203 507
203 508
205 434
206 522
206 523
207 310
207 524
207 528
208 231
208 280
208 529
209 529
209 530
210 512
210 531
210 532
211 475
211 476
211 543
212 235
212 459
212 551
213 240
213 555
214 215
214 562
216 559
216 565
218 501
218 574
219 386
219 577
219 578
220 570
221 388
221 592
222 594
222 904
223 597
224 599
224 915
225 483
225 600
226 275
226 409
227 329
227 602
229 433
229 610
229 611
230 623
230 624
230 965
231 626
231 627
232 432
232 630
233 391
233 632
233 907
234 636
235 299
235 550
236 322
237 238
237 544
237 646
238 647
239 465
240 241
241 654
242 243
243 656
245 363
245 660
246 662
247 248
247 376
247 676
248 540
248 677
249 302
249 679
250 911
251 561
251 680
252 402
252 681
253 254
254 605
254 690
255 256
255 606
255 690
256 339
257 691
258 692
258 693
259 260
260 473
260 695
261 474
261 697
261 698
262 263
262 413
263 914
264 265
264 705
266 708
266 709
266 935
267 710
268 712
268 713
268 940
271 726
272 416
273 417
274 286
274 287
275 733
276 734
277 530
277 531
278 533
278 743
279 638
279 738
279 744
280 528
280 745
281 436
283 284
283 711
284 285
284 492
285 755
286 729
286 758
287 730
288 289
288 451
288 991
289 671
289 766
290 291
290 294
290 766
291 292
292 717
292 767
293 453
293 771
294 697
294 775
295 542
295 543
296 497
296 782
297 298
297 421
299 785
300 301
300 560
301 654
301 790
302 791
303 359
304 305
304 386
304 803
306 398
308 804
309 310
309 523
310 807
311 591
311 807
311 808
312 370
313 314
313 360
314 315
315 580
316 580
317 903
319 320
319 829
320 504
320 830
321 831
322 323
323 324
323 361
324 833
325 461
325 833
325 834
326 327
326 835
327 836
328 498
329 513
330 842
331 468
331 846
331 847
332 333
332 390
333 685
334 848
334 849
335 853
336 463
337 858
337 973
338 603
338 861
338 862
339 862
339 863
340 916
341 342
341 867
342 868
343 863
344 482
344 869
345 873
345 974
346 356
346 874
346 881
347 876
347 877
348 374
348 880
350 649
351 352
352 353
353 883
354 355
354 884
356 885
357 358
362 888
363 620
364 890
365 366
365 891
366 367
369 893
373 896
375 898
376 899
377 378
377 900
378 379
379 380
380 381
381 382
382 383
383 384
384 901
385 678
385 902
389 390
393 394
395 396
396 397
397 910
398 399
399 400
401 402
404 405
405 406
409 410
410 411
413 414
414 415
416 417
420 798
422 924
423 424
423 925
424 425
426 927
428 429
429 513
430 930
431 931
432 433
434 435
436 437
437 438
438 933
440 937
441 442
441 938
443 939
444 445
447 448
447 534
448 449
449 450
450 451
452 453
452 943
454 455
454 944
457 458
457 946
459 947
460 948
461 462
462 949
463 950
464 465
466 951
467 468
469 470
470 471
472 473
474 475
478 479
485 882
486 487
487 488
490 491
491 953
492 493
493 494
494 495
500 501
502 503
503 504
505 506
506 507
508 509
509 510
514 515
515 516
517 956
518 519
522 585
524 525
525 526
526 527
527 959
532 533
534 535
535 536
536 537
537 538
538 539
539 960
540 541
541 542
545 546
545 961
546 547
547 548
548 549
551 552
552 553
553 554
554 555
557 558
559 560
563 564
565 962
566 567
569 570
571 572
575 964
576 577
578 579
582 583
583 584
586 587
587 588
588 589
589 590
590 591
595 596
600 601
602 966
603 604
604 605
607 608
607 967
608 968
609 969
609 970
610 971
611 972
612 613
613 614
614 615
615 616
616 617
618 619
620 621
621 977
622 623
624 625
626 979
627 628
628 629
630 631
633 634
634 635
636 637
637 660
638 639
639 640
641 642
641 981
642 643
644 645
644 983
645 646
647 648
650 651
650 677
651 652
652 653
653 784
661 662
663 664
664 665
665 666
667 668
668 669
669 670
671 672
672 673
674 675
675 676
682 683
688 689
691 692
693 694
695 696
698 699
707 984
709 710
714 715
715 716
718 719
720 721
721 722
724 725
725 726
730 731
734 735
736 737
737 873
738 739
739 740
740 741
741 932
744 986
745 746
747 748
748 749
749 987
752 989
753 754
755 756
756 757
757 758
759 760
760 761
761 762
762 763
763 764
764 765
767 768
769 770
769 992
770 771
772 773
773 774
774 775
776 777
776 994
779 780
780 781
782 783
785 786
786 787
787 788
788 789
792 793
794 795
795 796
796 797
800 801
801 802
805 806
808 809
809 810
811 996
812 813
815 816
816 817
817 818
818 819
820 821
821 822
822 823
825 826
826 827
830 997
831 832
836 837
840 841
842 843
845 846
850 851
851 852
852 853
854 855
856 857
857 999
859 860
860 861
865 866
870 871
874 875
875 876
877 878
879 880
